p cnf 500 1200
1 2 3  0
-4 1 0
4 -1 0
-5 4 2 0
5 -4 0
5 -2 0
-4 -2 0
-5 -3 0
6 7 8  0
-9 6 0
9 -6 0
-10 9 7 0
10 -9 0
10 -7 0
-9 -7 0
-10 -8 0
11 12 13  0
-14 11 0
14 -11 0
-15 14 12 0
15 -14 0
15 -12 0
-14 -12 0
-15 -13 0
16 17 18  0
-19 16 0
19 -16 0
-20 19 17 0
20 -19 0
20 -17 0
-19 -17 0
-20 -18 0
21 22 23  0
-24 21 0
24 -21 0
-25 24 22 0
25 -24 0
25 -22 0
-24 -22 0
-25 -23 0
26 27 28  0
-29 26 0
29 -26 0
-30 29 27 0
30 -29 0
30 -27 0
-29 -27 0
-30 -28 0
31 32 33  0
-34 31 0
34 -31 0
-35 34 32 0
35 -34 0
35 -32 0
-34 -32 0
-35 -33 0
36 37 38  0
-39 36 0
39 -36 0
-40 39 37 0
40 -39 0
40 -37 0
-39 -37 0
-40 -38 0
41 42 43  0
-44 41 0
44 -41 0
-45 44 42 0
45 -44 0
45 -42 0
-44 -42 0
-45 -43 0
46 47 48  0
-49 46 0
49 -46 0
-50 49 47 0
50 -49 0
50 -47 0
-49 -47 0
-50 -48 0
51 52 53  0
-54 51 0
54 -51 0
-55 54 52 0
55 -54 0
55 -52 0
-54 -52 0
-55 -53 0
56 57 58  0
-59 56 0
59 -56 0
-60 59 57 0
60 -59 0
60 -57 0
-59 -57 0
-60 -58 0
61 62 63  0
-64 61 0
64 -61 0
-65 64 62 0
65 -64 0
65 -62 0
-64 -62 0
-65 -63 0
66 67 68  0
-69 66 0
69 -66 0
-70 69 67 0
70 -69 0
70 -67 0
-69 -67 0
-70 -68 0
71 72 73  0
-74 71 0
74 -71 0
-75 74 72 0
75 -74 0
75 -72 0
-74 -72 0
-75 -73 0
76 77 78  0
-79 76 0
79 -76 0
-80 79 77 0
80 -79 0
80 -77 0
-79 -77 0
-80 -78 0
81 82 83  0
-84 81 0
84 -81 0
-85 84 82 0
85 -84 0
85 -82 0
-84 -82 0
-85 -83 0
86 87 88  0
-89 86 0
89 -86 0
-90 89 87 0
90 -89 0
90 -87 0
-89 -87 0
-90 -88 0
91 92 93  0
-94 91 0
94 -91 0
-95 94 92 0
95 -94 0
95 -92 0
-94 -92 0
-95 -93 0
96 97 98  0
-99 96 0
99 -96 0
-100 99 97 0
100 -99 0
100 -97 0
-99 -97 0
-100 -98 0
101 102 103  0
-104 101 0
104 -101 0
-105 104 102 0
105 -104 0
105 -102 0
-104 -102 0
-105 -103 0
106 107 108  0
-109 106 0
109 -106 0
-110 109 107 0
110 -109 0
110 -107 0
-109 -107 0
-110 -108 0
111 112 113  0
-114 111 0
114 -111 0
-115 114 112 0
115 -114 0
115 -112 0
-114 -112 0
-115 -113 0
116 117 118  0
-119 116 0
119 -116 0
-120 119 117 0
120 -119 0
120 -117 0
-119 -117 0
-120 -118 0
121 122 123  0
-124 121 0
124 -121 0
-125 124 122 0
125 -124 0
125 -122 0
-124 -122 0
-125 -123 0
126 127 128  0
-129 126 0
129 -126 0
-130 129 127 0
130 -129 0
130 -127 0
-129 -127 0
-130 -128 0
131 132 133  0
-134 131 0
134 -131 0
-135 134 132 0
135 -134 0
135 -132 0
-134 -132 0
-135 -133 0
136 137 138  0
-139 136 0
139 -136 0
-140 139 137 0
140 -139 0
140 -137 0
-139 -137 0
-140 -138 0
141 142 143  0
-144 141 0
144 -141 0
-145 144 142 0
145 -144 0
145 -142 0
-144 -142 0
-145 -143 0
146 147 148  0
-149 146 0
149 -146 0
-150 149 147 0
150 -149 0
150 -147 0
-149 -147 0
-150 -148 0
151 152 153  0
-154 151 0
154 -151 0
-155 154 152 0
155 -154 0
155 -152 0
-154 -152 0
-155 -153 0
156 157 158  0
-159 156 0
159 -156 0
-160 159 157 0
160 -159 0
160 -157 0
-159 -157 0
-160 -158 0
161 162 163  0
-164 161 0
164 -161 0
-165 164 162 0
165 -164 0
165 -162 0
-164 -162 0
-165 -163 0
166 167 168  0
-169 166 0
169 -166 0
-170 169 167 0
170 -169 0
170 -167 0
-169 -167 0
-170 -168 0
171 172 173  0
-174 171 0
174 -171 0
-175 174 172 0
175 -174 0
175 -172 0
-174 -172 0
-175 -173 0
176 177 178  0
-179 176 0
179 -176 0
-180 179 177 0
180 -179 0
180 -177 0
-179 -177 0
-180 -178 0
181 182 183  0
-184 181 0
184 -181 0
-185 184 182 0
185 -184 0
185 -182 0
-184 -182 0
-185 -183 0
186 187 188  0
-189 186 0
189 -186 0
-190 189 187 0
190 -189 0
190 -187 0
-189 -187 0
-190 -188 0
191 192 193  0
-194 191 0
194 -191 0
-195 194 192 0
195 -194 0
195 -192 0
-194 -192 0
-195 -193 0
196 197 198  0
-199 196 0
199 -196 0
-200 199 197 0
200 -199 0
200 -197 0
-199 -197 0
-200 -198 0
201 202 203  0
-204 201 0
204 -201 0
-205 204 202 0
205 -204 0
205 -202 0
-204 -202 0
-205 -203 0
206 207 208  0
-209 206 0
209 -206 0
-210 209 207 0
210 -209 0
210 -207 0
-209 -207 0
-210 -208 0
211 212 213  0
-214 211 0
214 -211 0
-215 214 212 0
215 -214 0
215 -212 0
-214 -212 0
-215 -213 0
216 217 218  0
-219 216 0
219 -216 0
-220 219 217 0
220 -219 0
220 -217 0
-219 -217 0
-220 -218 0
221 222 223  0
-224 221 0
224 -221 0
-225 224 222 0
225 -224 0
225 -222 0
-224 -222 0
-225 -223 0
226 227 228  0
-229 226 0
229 -226 0
-230 229 227 0
230 -229 0
230 -227 0
-229 -227 0
-230 -228 0
231 232 233  0
-234 231 0
234 -231 0
-235 234 232 0
235 -234 0
235 -232 0
-234 -232 0
-235 -233 0
236 237 238  0
-239 236 0
239 -236 0
-240 239 237 0
240 -239 0
240 -237 0
-239 -237 0
-240 -238 0
241 242 243  0
-244 241 0
244 -241 0
-245 244 242 0
245 -244 0
245 -242 0
-244 -242 0
-245 -243 0
246 247 248  0
-249 246 0
249 -246 0
-250 249 247 0
250 -249 0
250 -247 0
-249 -247 0
-250 -248 0
251 252 253  0
-254 251 0
254 -251 0
-255 254 252 0
255 -254 0
255 -252 0
-254 -252 0
-255 -253 0
256 257 258  0
-259 256 0
259 -256 0
-260 259 257 0
260 -259 0
260 -257 0
-259 -257 0
-260 -258 0
261 262 263  0
-264 261 0
264 -261 0
-265 264 262 0
265 -264 0
265 -262 0
-264 -262 0
-265 -263 0
266 267 268  0
-269 266 0
269 -266 0
-270 269 267 0
270 -269 0
270 -267 0
-269 -267 0
-270 -268 0
271 272 273  0
-274 271 0
274 -271 0
-275 274 272 0
275 -274 0
275 -272 0
-274 -272 0
-275 -273 0
276 277 278  0
-279 276 0
279 -276 0
-280 279 277 0
280 -279 0
280 -277 0
-279 -277 0
-280 -278 0
281 282 283  0
-284 281 0
284 -281 0
-285 284 282 0
285 -284 0
285 -282 0
-284 -282 0
-285 -283 0
286 287 288  0
-289 286 0
289 -286 0
-290 289 287 0
290 -289 0
290 -287 0
-289 -287 0
-290 -288 0
291 292 293  0
-294 291 0
294 -291 0
-295 294 292 0
295 -294 0
295 -292 0
-294 -292 0
-295 -293 0
296 297 298  0
-299 296 0
299 -296 0
-300 299 297 0
300 -299 0
300 -297 0
-299 -297 0
-300 -298 0
301 302 303  0
-304 301 0
304 -301 0
-305 304 302 0
305 -304 0
305 -302 0
-304 -302 0
-305 -303 0
306 307 308  0
-309 306 0
309 -306 0
-310 309 307 0
310 -309 0
310 -307 0
-309 -307 0
-310 -308 0
311 312 313  0
-314 311 0
314 -311 0
-315 314 312 0
315 -314 0
315 -312 0
-314 -312 0
-315 -313 0
316 317 318  0
-319 316 0
319 -316 0
-320 319 317 0
320 -319 0
320 -317 0
-319 -317 0
-320 -318 0
321 322 323  0
-324 321 0
324 -321 0
-325 324 322 0
325 -324 0
325 -322 0
-324 -322 0
-325 -323 0
326 327 328  0
-329 326 0
329 -326 0
-330 329 327 0
330 -329 0
330 -327 0
-329 -327 0
-330 -328 0
331 332 333  0
-334 331 0
334 -331 0
-335 334 332 0
335 -334 0
335 -332 0
-334 -332 0
-335 -333 0
336 337 338  0
-339 336 0
339 -336 0
-340 339 337 0
340 -339 0
340 -337 0
-339 -337 0
-340 -338 0
341 342 343  0
-344 341 0
344 -341 0
-345 344 342 0
345 -344 0
345 -342 0
-344 -342 0
-345 -343 0
346 347 348  0
-349 346 0
349 -346 0
-350 349 347 0
350 -349 0
350 -347 0
-349 -347 0
-350 -348 0
351 352 353  0
-354 351 0
354 -351 0
-355 354 352 0
355 -354 0
355 -352 0
-354 -352 0
-355 -353 0
356 357 358  0
-359 356 0
359 -356 0
-360 359 357 0
360 -359 0
360 -357 0
-359 -357 0
-360 -358 0
361 362 363  0
-364 361 0
364 -361 0
-365 364 362 0
365 -364 0
365 -362 0
-364 -362 0
-365 -363 0
366 367 368  0
-369 366 0
369 -366 0
-370 369 367 0
370 -369 0
370 -367 0
-369 -367 0
-370 -368 0
371 372 373  0
-374 371 0
374 -371 0
-375 374 372 0
375 -374 0
375 -372 0
-374 -372 0
-375 -373 0
376 377 378  0
-379 376 0
379 -376 0
-380 379 377 0
380 -379 0
380 -377 0
-379 -377 0
-380 -378 0
381 382 383  0
-384 381 0
384 -381 0
-385 384 382 0
385 -384 0
385 -382 0
-384 -382 0
-385 -383 0
386 387 388  0
-389 386 0
389 -386 0
-390 389 387 0
390 -389 0
390 -387 0
-389 -387 0
-390 -388 0
391 392 393  0
-394 391 0
394 -391 0
-395 394 392 0
395 -394 0
395 -392 0
-394 -392 0
-395 -393 0
396 397 398  0
-399 396 0
399 -396 0
-400 399 397 0
400 -399 0
400 -397 0
-399 -397 0
-400 -398 0
401 402 403  0
-404 401 0
404 -401 0
-405 404 402 0
405 -404 0
405 -402 0
-404 -402 0
-405 -403 0
406 407 408  0
-409 406 0
409 -406 0
-410 409 407 0
410 -409 0
410 -407 0
-409 -407 0
-410 -408 0
411 412 413  0
-414 411 0
414 -411 0
-415 414 412 0
415 -414 0
415 -412 0
-414 -412 0
-415 -413 0
416 417 418  0
-419 416 0
419 -416 0
-420 419 417 0
420 -419 0
420 -417 0
-419 -417 0
-420 -418 0
421 422 423  0
-424 421 0
424 -421 0
-425 424 422 0
425 -424 0
425 -422 0
-424 -422 0
-425 -423 0
426 427 428  0
-429 426 0
429 -426 0
-430 429 427 0
430 -429 0
430 -427 0
-429 -427 0
-430 -428 0
431 432 433  0
-434 431 0
434 -431 0
-435 434 432 0
435 -434 0
435 -432 0
-434 -432 0
-435 -433 0
436 437 438  0
-439 436 0
439 -436 0
-440 439 437 0
440 -439 0
440 -437 0
-439 -437 0
-440 -438 0
441 442 443  0
-444 441 0
444 -441 0
-445 444 442 0
445 -444 0
445 -442 0
-444 -442 0
-445 -443 0
446 447 448  0
-449 446 0
449 -446 0
-450 449 447 0
450 -449 0
450 -447 0
-449 -447 0
-450 -448 0
451 452 453  0
-454 451 0
454 -451 0
-455 454 452 0
455 -454 0
455 -452 0
-454 -452 0
-455 -453 0
456 457 458  0
-459 456 0
459 -456 0
-460 459 457 0
460 -459 0
460 -457 0
-459 -457 0
-460 -458 0
461 462 463  0
-464 461 0
464 -461 0
-465 464 462 0
465 -464 0
465 -462 0
-464 -462 0
-465 -463 0
466 467 468  0
-469 466 0
469 -466 0
-470 469 467 0
470 -469 0
470 -467 0
-469 -467 0
-470 -468 0
471 472 473  0
-474 471 0
474 -471 0
-475 474 472 0
475 -474 0
475 -472 0
-474 -472 0
-475 -473 0
476 477 478  0
-479 476 0
479 -476 0
-480 479 477 0
480 -479 0
480 -477 0
-479 -477 0
-480 -478 0
481 482 483  0
-484 481 0
484 -481 0
-485 484 482 0
485 -484 0
485 -482 0
-484 -482 0
-485 -483 0
486 487 488  0
-489 486 0
489 -486 0
-490 489 487 0
490 -489 0
490 -487 0
-489 -487 0
-490 -488 0
491 492 493  0
-494 491 0
494 -491 0
-495 494 492 0
495 -494 0
495 -492 0
-494 -492 0
-495 -493 0
496 497 498  0
-499 496 0
499 -496 0
-500 499 497 0
500 -499 0
500 -497 0
-499 -497 0
-500 -498 0
207 257 288 0
416 433 57 0
98 167 416 0
132 352 196 0
88 156 312 0
193 287 451 0
92 473 21 0
352 2 52 0
441 196 226 0
257 343 297 0
203 77 428 0
287 253 278 0
352 406 443 0
202 313 493 0
308 106 437 0
58 417 142 0
176 383 207 0
197 71 173 0
341 412 286 0
453 171 496 0
227 8 443 0
2 337 301 0
326 381 127 0
167 447 381 0
243 86 157 0
288 157 43 0
202 478 446 0
362 296 428 0
298 391 432 0
492 367 347 0
183 162 187 0
191 8 188 0
467 247 51 0
447 286 108 0
368 407 438 0
16 147 212 0
141 483 91 0
122 237 341 0
56 397 121 0
316 367 241 0
241 181 202 0
481 57 11 0
146 227 16 0
198 351 417 0
358 482 218 0
287 243 108 0
357 307 327 0
327 466 378 0
383 53 426 0
468 222 266 0
188 157 17 0
393 127 306 0
33 182 206 0
236 131 316 0
277 102 247 0
456 176 128 0
393 343 497 0
467 302 288 0
467 353 331 0
416 233 128 0
403 177 213 0
48 337 377 0
302 121 252 0
131 206 76 0
433 172 33 0
406 402 33 0
142 478 233 0
333 458 411 0
136 182 46 0
401 278 306 0
307 53 56 0
48 396 387 0
378 467 347 0
222 112 198 0
227 167 97 0
446 498 311 0
182 206 403 0
86 28 123 0
242 287 427 0
8 172 468 0
412 193 432 0
221 377 453 0
282 316 113 0
203 41 228 0
488 378 172 0
207 23 6 0
417 327 177 0
98 332 281 0
111 56 252 0
141 37 421 0
388 308 286 0
377 62 258 0
237 213 28 0
272 262 72 0
391 13 256 0
398 322 307 0
38 327 147 0
357 197 212 0
346 142 91 0
376 187 411 0
342 421 147 0
68 378 477 0
281 417 92 0
456 302 426 0
461 112 161 0
147 396 413 0
497 318 238 0
467 216 446 0
298 178 228 0
336 167 477 0
422 356 77 0
16 273 257 0
133 122 317 0
481 127 252 0
366 253 297 0
383 132 291 0
268 282 401 0
323 276 141 0
32 467 41 0
276 63 461 0
277 332 363 0
118 451 443 0
452 146 467 0
83 177 421 0
263 148 241 0
443 227 431 0
178 473 466 0
237 438 168 0
438 402 291 0
88 38 392 0
356 63 128 0
433 56 428 0
76 462 308 0
418 131 112 0
422 233 213 0
257 218 417 0
67 402 13 0
428 246 123 0
31 316 136 0
342 413 271 0
458 453 106 0
33 478 321 0
18 96 157 0
338 277 112 0
106 227 288 0
398 53 432 0
218 91 152 0
202 181 188 0
277 43 441 0
228 108 321 0
476 152 67 0
181 62 496 0
207 377 498 0
3 347 47 0
77 62 171 0
27 123 217 0
232 21 263 0
237 368 212 0
147 38 351 0
148 436 236 0
443 263 71 0
288 242 93 0
301 476 233 0
363 456 87 0
242 16 461 0
51 276 231 0
287 411 86 0
306 352 82 0
497 237 356 0
276 318 302 0
308 201 423 0
446 213 256 0
388 466 108 0
343 246 311 0
163 228 142 0
272 137 47 0
426 21 377 0
458 101 256 0
233 312 437 0
101 473 92 0
111 323 358 0
61 387 181 0
361 22 323 0
431 396 286 0
123 207 476 0
473 176 356 0
182 83 268 0
88 161 351 0
408 31 281 0
413 468 496 0
172 318 283 0
143 352 292 0
246 6 356 0
172 438 12 0
338 276 208 0
321 312 453 0
88 197 423 0
273 368 43 0
208 438 481 0
472 133 447 0
148 151 416 0
357 323 406 0
23 393 376 0
267 132 206 0
61 352 262 0
291 262 437 0
327 423 41 0
436 423 128 0
251 126 116 0
497 26 138 0
406 456 391 0
372 446 127 0
382 313 393 0
358 352 286 0
336 408 398 0
411 232 122 0
361 223 228 0
56 282 437 0
473 333 388 0
308 208 328 0
341 236 383 0
242 476 421 0
198 246 93 0
457 47 292 0
346 367 291 0
318 343 117 0
191 471 342 0
128 377 216 0
493 128 346 0
146 183 257 0
33 476 22 0
62 432 243 0
118 468 316 0
332 238 347 0
272 291 208 0
91 456 107 0
32 382 158 0
68 423 281 0
477 47 328 0
296 148 72 0
162 113 251 0
118 146 21 0
141 93 123 0
302 481 67 0
256 428 476 0
278 181 13 0
368 231 386 0
338 343 353 0
62 78 17 0
372 266 438 0
57 138 97 0
426 42 2 0
167 476 288 0
488 237 157 0
206 281 88 0
238 426 396 0
22 11 236 0
13 367 171 0
313 267 483 0
318 206 178 0
317 451 47 0
27 427 151 0
307 328 146 0
91 173 22 0
38 356 192 0
58 466 12 0
357 343 96 0
206 413 97 0
47 293 301 0
392 168 103 0
301 368 161 0
301 173 61 0
153 432 57 0
138 237 338 0
497 398 237 0
21 413 328 0
283 113 32 0
483 196 268 0
456 133 92 0
491 198 11 0
143 226 438 0
382 447 431 0
421 182 342 0
148 376 492 0
246 316 388 0
392 382 337 0
193 298 473 0
136 396 32 0
286 296 217 0
393 288 422 0
56 457 208 0
282 268 57 0
327 393 33 0
482 116 3 0
82 51 117 0
56 63 138 0
62 432 12 0
326 202 83 0
158 66 357 0
367 216 82 0
412 33 408 0
262 101 52 0
202 473 111 0
391 131 303 0
286 441 101 0
356 418 6 0
313 46 222 0
286 256 81 0
68 397 446 0
441 381 496 0
161 258 3 0
156 288 488 0
318 448 288 0
202 18 306 0
312 456 148 0
433 328 142 0
468 157 16 0
43 432 427 0
36 327 243 0
43 158 263 0
231 127 401 0
163 82 403 0
481 453 198 0
391 23 308 0
372 332 366 0
93 41 432 0
247 331 168 0
446 178 63 0
291 127 186 0
333 42 107 0
11 283 433 0
256 301 26 0
78 376 128 0
147 31 93 0
78 266 16 0
6 213 162 0
71 481 128 0
258 83 482 0
436 182 142 0
438 186 472 0
393 193 52 0
42 453 63 0
486 432 107 0
106 67 16 0
328 181 171 0
231 388 181 0
291 87 22 0
83 228 96 0
187 376 257 0
223 103 353 0
316 92 23 0
406 272 316 0
397 321 438 0
457 142 138 0
228 237 286 0
123 187 66 0
7 43 482 0
332 16 2 0
88 336 292 0
388 352 123 0
231 241 457 0
148 303 256 0
306 163 257 0
37 381 78 0
362 466 107 0
113 331 282 0
181 266 376 0
22 371 132 0
58 12 313 0
313 413 141 0
136 97 22 0
192 171 341 0
212 87 66 0
288 211 331 0
7 318 167 0
441 216 333 0
198 442 213 0
81 88 343 0
406 36 452 0
162 7 131 0
212 253 127 0
161 366 451 0
412 27 228 0
411 16 271 0
73 423 431 0
267 147 332 0
121 363 73 0
292 358 352 0
216 263 278 0
491 411 166 0
352 391 401 0
13 48 276 0
93 247 378 0
192 106 17 0
436 116 98 0
93 351 98 0
411 461 447 0
468 88 151 0
362 52 16 0
272 311 141 0
